6,7	0,0	17,9	8,7	0,0	0,0	0,0	0,0	0,0	14,2
8,5	19,9	0,0	15,6	6,6	0,0	0,0	8,1	0,0	0,0
0,0	0,0	14,8	0,0	16,8	12,6	0,0	0,0	19,1	0,0
6,1	0,0	10,7	0,0	0,0	0,0	13,3	0,0	0,0	0,0
0,0	18,2	0,0	15,9	15,4	0,0	0,0	6,1	0,0	0,0
0,0	12,8	17,2	0,0	10,3	16,9	0,0	0,0	14,9	0,0
0,0	15,0	0,0	9,8	0,0	0,0	13,1	0,0	0,0	14,3
19,0	0,0	18,0	0,0	0,0	0,0	0,0	0,0	0,0	18,2
0,0	19,7	0,0	12,4	10,0	0,0	0,0	19,4	0,0	0,0
0,0	0,0	7,3	0,0	0,0	12,1	5,2	0,0	0,0	9,1
									
4,2	2,9	3,6	2,7	3,1	4,5	4,2	4,4	2,6	3,5
